
 102   30
  10   10   10   10   10   10   10   10   10   10   10   10   10   10   10   10   10   10   10   10   10   10   10   10   10   10   10   10   10   10

   0   0   0   0   0   0   0   0   0   0   0   0   0   0   0   0   0   0   0   0   0   0   0   0   0   0   0   0   0   0   0  25 2 3 4 5 6 7 9 10 11 12 13 14 15 16 17 18 19 20 21 22 23 26 27 29 31 
   8   0   0   0   0   0   1   0   0   0   1   0   0   0   0   0   0   0   0   0   0   0   0   0   1   0   0   0   0   0   0  16 99 65 63 61 60 56 52 51 50 49 48 42 35 30 28 8 
   7   0   0   0   0   0  10   0   0   0   0   1   0   0   0   0   0   0   0   0   0   1   1   2   0   1   0   0   0   0   0  21 100 98 75 74 73 68 65 64 63 61 60 58 57 54 51 50 47 46 45 41 37 
   2   1   0   0   0   2   0   0   0   0   0   0   0   1   0   0   1   0   0   0   0   0   0   0   0   0   0   0   0   0   0  13 99 97 75 63 62 61 52 47 46 40 39 32 24 
   5   0   0   0   0   0   0   1   0   0   0   0   0   0   0   0   7   0   0   0   2   0   0   0  10   0   0   0   0   0   0  15 99 94 75 68 61 57 55 52 51 48 45 40 36 35 25 
   1   0   0   0   0   4   0   0   0   0   8   0   1   0   0   0   0   0   0   0   0   0   0   0   0   0   0   1   0   0   0  13 99 93 75 65 62 60 54 53 52 51 46 33 24 
   4   0   3   0   0   0   0   5   0   0   0   7   0   0   0   0   0   0   4   0   0   0   3   0   6   0   0   0   0   0   0  16 101 100 96 94 90 74 73 62 57 54 51 45 42 41 40 37 
   1   0   0   1   0   6   3   0   0   0   0   0   0   0   3   0   0   0   0   1   0   9   0   0   0   0   0   0   0   0   0  14 98 97 92 91 75 74 73 68 62 58 47 46 43 40 
   5   0   0   0   0   0   7   0   0   0   0   0   5   0   0   0   0   0   0  10   0   0   0   0   0  10   0   0   0   0   0  11 100 99 94 75 59 52 50 48 44 40 35 
   1   0   0   0   0   0   0   0   0   0   0   0   4   0   6   0   0   0   0   0   0   0   0   6   7   0   0   0   0   0   0  13 101 100 99 98 88 74 61 59 57 52 50 40 39 
   8   9   0   0   0   0   0   0   0   0   0   0   0   0   0   0   0   0   0   0   5   0   0   0   0   0   0   0   0   0   0  10 99 73 68 66 65 62 50 45 42 38 
   9   0   0   0   0   0   0   0   0   0   0   2   0   0  10   0   4   0   0   0   0   0   0   0   0   0   0   0   0   1   0  14 99 91 89 73 69 67 66 65 64 63 59 58 51 34 
   1   6   3   0   0   0   0   0   0   0   0   0   0   0   0   0   0   0   0   0   0   0   0   0   0   0   0   0   0   0   0  14 101 100 99 97 92 74 73 69 68 62 58 57 46 40 
   5   0   0   0   0  10   0   0   0   0   0   0  10   3   0   0   0   0   0   0   0  10   0   0   0   0   0   0   0   0   0  13 99 96 95 89 74 66 64 60 58 57 51 45 30 
   2   0   6   7   0   0   0   0   0   0   0   0   0   0   9   0   0   0   0   0   0   0   0   0   0   0   0   0   0   0   0  13 100 99 94 68 66 65 63 61 59 51 48 45 44 
   9   0   0   0   0   0   0   0   1   0   0   0   0   7   0   0   0   0   0   0   0   0   0   5   0   0   0   0   0   0   0   8 99 98 97 57 56 45 41 33 
   2   0   0   0   0   0   0   0   7   0   0   0   0   0   0   0   0   0   0   0   4   0   7   0   7   0   0   0   0   0   0  18 99 98 95 94 90 89 82 75 74 69 67 66 64 62 60 52 51 45 
   6   0   9   0   0   0   0   0   0   0   0   0   0   0   0   0   0   0   4   0   5   6   0   6   0   6   0   0   0   0   0  11 100 99 96 94 90 88 51 48 47 45 40 
   6   0   0   0   0   0   0   0   0   0   0   0   0   3   0   0   0   0   0   0   0   0   0   0   0   0   0   0   0   8   0  15 96 95 94 89 73 71 69 68 67 64 62 60 58 51 45 
   3   0   0   0   0   0   0   0   0   0   0   0   8   0   0   0   0   1   0   0  10   0   0   7   0   0   0   0   1   0   0  13 99 96 91 90 74 72 69 68 64 62 57 51 41 
   1   0   0   5   0   0   0   0   5   0   0   0   0   0   0   0   7   0   0   0   0   0   0   4   0   0   0   0   0   0   0  11 98 92 73 69 66 65 64 59 53 50 45 
  10   0   0   0   0   9   0   0   0   0   0   1   0   0   0   0   0   8   0   0   8   7   0   0   0   0   0   0   0   0   0  10 96 94 91 90 75 74 72 63 52 40 
   8   0   0   0   0   0   0   0   8   0   5   0   0   0   0   0   0   6   0   0   0   0   0   0   0   0   0   0   0   0   0  12 98 97 96 92 91 90 88 81 73 72 70 40 
   5   0   0   0   0   0   0   0   0   0   0   0   0   0   0   0   0   0   0   0   0   0   0   0   0   0   0   0   5   0   0  18 100 98 94 92 91 90 89 88 87 86 79 73 70 69 68 64 59 57 
   7   0   7   0   0   0   0   0   0   0   0   0   7   0   0   0   0   0   0   0   0   0   0   0   0   0   0   0   0   0   0  19 101 98 97 96 93 92 91 89 87 86 85 82 77 74 72 69 67 66 64 
   7   0   0   0   0   0   0   0   0   0   0  10   0   0   0   0   0   0   0   0   0   0   0   0   0   0   0  10   0   6   3   9 101 99 98 91 90 73 70 69 40 
   1   0   0   0   0   0   0   0   0   0   0   0   0   8   0   1   0   0   0   0   0   7   0   0   0   0   0   6   8   0   6  16 101 95 93 91 90 88 87 86 85 82 73 70 69 66 64 60 
   2   0   0   5   0   0   4   0   0   0   0   0   0   0   5   0   4   0   0   0   6   0   5   0   0   0   0   0   0   0   0  16 96 95 93 91 90 89 87 86 85 82 76 73 70 69 66 64 
   6   0   0   0   0   0   0   0   0   0   0   0   0   0   0   0   0   0   0   0   0   0   0   5   0   0   0   0   0   0   0  15 97 94 90 88 87 86 85 82 77 76 73 72 69 66 64 
   4   0   0   9   0   0   0   0   0   0   0   0   0   0   0   0   8   0   0   0   0   0   0   0   0   0   0   0   0   0   0  14 94 92 91 90 87 84 82 80 75 72 71 69 67 62 
   7   4   0   0   0   0   0   0   0   0   6   0   0   0   0   0   0   0   0   0   0   0   0   0   0   0   1   0   0   0   0  14 98 97 92 88 86 85 82 80 76 72 70 69 64 58 
  10   0   0   0   0   0   0   0   0   0   0   7   0   9   0   0   0   0  10   0   0   0   6   0   0   0   0   8   0   0   0   6 88 74 69 67 59 45 
   8   0   4   0   0   0   4   0   0   0   0   0   0   0   0   9   0   0   2   0   7   0   8   0   0   0   0   0   0   0   0  13 100 96 94 91 90 86 82 77 74 73 71 69 64 
   2   0   8   0   0   0   0   0   0   0   3   0   0   0   0   0   0   0   0   0   0   0   0   0   0   0   0   0   0   0   0  17 100 96 94 93 92 90 88 87 86 85 84 82 81 77 74 72 71 
  10   8   0   3   0   0   0   0   0   1   0   0   0   0   0   0   0   0   0   0   0   0   0   6   6   0   0   0   8   0   4  10 101 98 93 85 82 73 72 67 64 58 
   9   0   0   0   0   0   0   0   0   0   0   0   0   0   0   0   0   0   0   0   0   0   0   0   0   0   0   0   7   0   0  10 96 91 88 82 72 70 69 67 64 60 
  10   0   0   0   1   0   0   0   0   0   0   0   0   0   0   0   0   0   4   0   0   0   0   0   0   0   0   0   0   0   0  14 99 97 91 87 86 85 84 83 82 80 77 71 69 67 
   2   0   0   7   9   0   0   0   0   0   0   0   4   0   0   0   4   0   0   0   5   0   0   0   5   6   0   0   0   0   0  11 101 100 94 89 88 82 80 76 69 64 58 
   7   0   0   0   0   0   0   0   0   0   0   0   0   0   0   9   0   7   0   5   0   0   0   0   0   0   5   0   0   0   0  13 96 94 89 86 85 83 82 78 76 72 70 69 58 
   5   0   0   0   8   0   0   0   0   0   0   0   0   0   0   0   0   0   7   0   0   0   0   0   0   4   6   0   0   0   0  11 95 93 89 87 86 85 82 77 76 66 64 
   6   0   0   0   0   0   0   0   0   0   7   0   0   0   0   0   7   0   0   0   0   0   0   0   0   0   0   0   0   0   0  11 95 92 89 87 85 84 82 81 77 67 66 
  10   0   0   0   0   0   0   0   0   0   0   0   0   0   8   0   0   0   0   4   0   0   0   0   0   0   0   0   0   0   0  10 98 91 89 87 86 83 78 77 69 59 
   5   0   0   0   0   0   0   0   0   0   0   0   0   8   0   0   0   0   0   0   0   0   7   0   0   0   4   0   0   0   0  10 101 100 94 93 88 83 82 71 69 67 
   1   0   0   0   0   0   0   0   0   0   0   0   0   0   0   0   0   0   0   0   0   0   0   0   0   0   0   0   0   0   0   8 92 89 88 82 74 70 69 67 
   8   5   0   8   5   0   0   0   0   0   0   0   0   0   0   0   0   0   0   0   0   0   0   0   7   0   7   0   9   0   0   9 93 91 87 85 84 83 80 72 70 
   2   0   0   6   0   0   0   0   0   0   3   0   7   0   0   0   0   0   0   0   0   0   0   0   0   0   0   0   0   0   6   9 96 94 90 83 80 78 76 72 70 
   5   0   0   0   0   0   9   0   0   0   0   0   0   0   0   0   0   0   0   0   0   0   0   0   0   0   0   0   0   0   0   6 86 84 80 69 67 59 
   9   0   0   0   0   0   0  10   8   0  10   5   0   0   0   0   0   0   0   0   0   0   0   0   0   0   0   5   0   0  10  10 98 97 91 89 87 85 81 80 78 77 
   7   0   0   0   0   0   0   0   0   0   0   0   0   0   0   0   0   0   0   0   0   7   5   0   0   0   0   0   0   0   0   9 85 84 83 82 80 78 77 76 71 
   1   0   0   0   0   7   0   0   0   0   0   0   0   6   0   0   0   0   0   0   0   0   0  10   0   0   0   0   0   0   0   7 91 86 83 80 77 72 67 
   8   0   0   0   0   7   0   5   0   0   0   8   0   0   0   0   9   0   2   5   0   0   0   0   9   0   0   0   0   0   0   8 97 87 86 80 79 78 76 70 
   8   0   0   0   0   5   0   0   0   0   0   3   0   0   0   0   0   3   0   4   7   0   0   0   0   0   0   0   7   0   0   8 92 86 83 81 78 77 76 73 
   6   0   0   0   0   0   0   0   0   0   0   0   0   0   0   0   0   6   6   0   0   0   0   0   0   0   0   0   0   0   0   5 89 88 85 82 58 
   1   0   0   0   8   0   0   0   0   0   6   4   0   0   0   0   0   0   0   9   0   0   0   0   0   0   0   0   0   0   0   5 89 82 78 76 66 
   3   0   0   0   0   0   0   7   0   0   0   0   0   0   0   0   0   0   0   0   0   0   0   0   0   0   0   0   0   0   0   6 89 83 82 79 76 69 
   9   0   0   0   0   0   0   0   0   0   0   0   0   0   0   0   0   0   0   0   8   0   0   0   0   0   0   0   0   0   0   6 88 84 79 78 77 76 
   1   0   0   0   0   0   0   0   0   0   0   6   0   0   0   5   0   0   0   0   0   0   0   0   0   0   0   7   0   0   0   3 81 77 67 
   3   6   0   0   0   1   0   7   0   0   0   0   0   0   0   7   0   7   0   0   0   0   0   0   0   0   0   0   0   0   5   4 90 81 79 77 
   3   0   0   0   6   0   0   0   4   6   0  10   0   0   0   0   0   0   8   0   0   0   0   0   0   0   0   6   0   0   0   4 85 82 81 76 
  10   0   0   0   0   0   0   0   0   0   0   0   0   6   0   0   0   0   8   0   0   0   0   0   0   0   0   0   3   0   0   4 92 80 77 76 
   5   0   4   0   0   0   0   0   0   0   8   0   0   0   7   0   0   5   0   0   0   5   0   0   0   0   0   8   0   0   0   4 84 80 77 76 
   5   0   0   0   0   0   0   0   0   0   0   0   0   0   0   0   0   0   0   0   0   0   0   0   0   0   0   0   0   0   0   3 88 76 70 
   1   0  10   0   0   0   0   4   0   0   0   0   0   8   0   0   0   0   0   0   0   0   0   0   0   0   0   0   0   0   0   3 88 86 70 
   2   0   0   0   0   0   0   0   8   0   0   0   6   0   7  10   0   0   0   0   0   0   0   0   0   0   0   0   0   0   0   3 84 83 78 
  10   0   0   0   0   0   0   0   0   0   0   0   0   0   0   4   0   8   5   8   0   0   0   0   0   0   0   3   0   6   0   3 95 85 76 
   8   0   0   7   0   1   0   0   0   8   0   0   0   0   0   0   0   0   0   0   0   0   0   0   0   0   0   0   0   0   0   2 80 71 
   3   0   0   0   0   0   0   0   0   0   0   0   0   0   0   0   0   6   0   0   0   0   0   0   0   0   5   0   6   0   0   2 78 76 
   7   0   0   0   0   0   0   0   0   0   0   0   0   0   0   0   9   0   0   0   0   0   0   8   0   6   0   0   0   6   0   2 82 77 
   5   9   0   0   0   0   0   0   0   0   0   0   0   0   6   0   0   0   0   0   0   0   0   5   0   0   0   0   7   0   0   1 81 
   6   4   0   0   0   0   6   0   0   0   7   0   0   0   0   0   0   8   9   0   0   0   0   0   0   0   0   0   0   0   0   1 77 
   8   0   0   0   0   0   0   0   0   0   0   0   0   0   0   0   0   0   0   0   0   0   0   0   5   8   0   0   0   8   0   1 79 
   2   0   0   0   0   0   0   0   0   0   0   0   0   0   6   0   0   0   0   0   0   0   0   0   5  10   9   0   0   0   0   1 79 
   6   0   0   0   0   0   0   0   0   0   0   0   0   0   0   0   0   0   0   0   4   0   0   0   0   0   0   0   2   0   0   1 80 
   2   0   0   0   0   9   0   0   5   0   0   0   0   0   0   0   0   0   0   0   0   0   0   0   0   0   0   0   0   0   0   1 76 
   2   0   8   0   0   0   0   0   0   0   0   0   0   0   0   0   0   0   0   0   5   4   0   0   0   0   0   0   0   0   0   1 78 
   4   8   0   0   0   0   0   0   0   0   0   0   0   0   0   0   7   0   0   0   0   0   6   4   0   0   0   6   0   0   0   1 102
   9   0   0   9   0   0   0   6   0   0   0   0   0   0   0   0   0   0   0   8   0   5   0   0   0   0   0   0   0   0   0   1 102
   8   0   0   0   0   0   0  10   0   0   9   0   0   0   0   0   0   0   0   0   0   5   0   0   0   4   0   0   0   0   4   1 102
   5   7   0   0   0   0   0   0   0   0   0   0  10   0   0   0   0   0   6   0   0   0   0   0   0   8   7   0   0   0   0   1 102
  10   0   0   0   0   0  10   0   0   0   0   0   0   0   4   0   0   0   0   0   0   0   0   8   0   7   0   0   0   7   0   1 102
   7   0   5   0   0   8   0   0   0   0   0   0   0   0   0   0   0   0   0   0   0   0   0   0   0   4   0   0   6   0   7   1 102
   6   0   0   0   0   0   0   0   0   0   0   0   0   6   0   0   0   0   0   0   0   0   0   0   0   0   0   0   0   0   0   1 102
  10   0   0   0   0   0   5   4   0   0   0   0   0   0   0   0   7   0   0   0   0   5   0   0   0   0   0   7   0   0   0   1 102
   6   0   0   0   0   5   0   0   0   0   0   6   0   0   0   0   7   0   0   0   0   0   0   0   0   5   0   7   0   0   0   1 102
  10   0   0   6   5   0   0   0   0   0   4   0   5   0   0   0   3   0   0   0   0   0   0   0   0   0   0   0   0   6   0   1 102
   5   5   0   0   0   0   0   0   0   0   7   0   0   0   0   0   0   0   0   0   0   0   0   0   0   0   6   0   0   0   6   1 102
  10   0   0   0   0   7   0   0   0  10   0   0   0   0   0   0   0   0   0   0   8   0   0   0   0   0   8   0   0   0   0   1 102
   2   0   0   0   0   8   0   0   8   0   0   0   0   0   0   0   0   0   0   0   0   0   0   0   0   0   5   0   0   0   0   1 102
   4   0   9   0   9   0   0   0   0   0   0   0   7   7   0   0   0   0   0   6   0   0   0   0   4   0   0   0   0   0  10   1 102
   9   0   0   0   0   0   0   0   0   0   0   0   0   0   0   0   0   0   0   0   0   6   0   0   0   0   0   0  10   0   0   1 102
  10   0   0   0   3   0   0   0   0   0   0  10   0   0   0   0   0   0   0   0   0   0   0   0   0  10  10   0   0   5   0   1 102
   5   0   0   0   0   7   8   0   0   0   0   0   6   0   6   0   0   0   0   0   0   0   0   0   0   0   0   0   0   0   0   1 102
  10   0   0   0   0   0   0   0   0   0   7   0   0   0   0   0   0   0   0   0   0   0   6   0   6   0   0   0   0   0   0   1 102
   6   0   0   0   0   0   0   0   0   5   7   7   0   0   0   0   0   0   0   0   0   0  10   0   0   0   0   0   0   0   0   1 102
   8   0   4   6   0   0   6   0   0   0   0   0   4   0   0   0   0   4   9   0   0   0   8   8   0   5   0   0   0   0   0   1 102
  10   0   0   0   0   0   0   0   0   0   0   0   0   0   3   0   0   0   0   0   0   0   0   0   0   0   0   0   0   7   0   1 102
   4   0   6   0   0   0   7   0   0   0   0   9   0   0   0   0   0   0   0   0   0   7   0   0   0   0   6   4   5   0   0   1 102
   4   0   7   0   0   0   0   0   0   0   0   0   6   0   0   0   0   0   0   0   0   0   0   0   0   0   0   0   0   0   0   1 102
   6   0   0   0   0   0   4   8   0   0   0   0   0   0   0   0   0   0   0   0   0   0   0   0   0   2   0   0   0   0   0   1 102
   3   0   3   5   0   6   0   5   0   0   5   0   0   0   0   3   0   0   0   0   6   0   0   0   0   0   5   0   0   0   5   1 102
   6   0   0   0   0   0   0   0   0   0   5   0   0   0   4   0   0   9   0   0   0   0   0   6   0   0   0   0   0   0   6   1 102
   0   0   0   0   0   0   0   0   0   0   0   0   0   0   0   0   0   0   0   0   0   0   0   0   0   0   0   0   0   0   0   0 
